p cnf 31 85
a 22 14 0
e 1 2 3 4 5 6 7 8 9 10 11 12 13 15 16 17 18 19 20 21 23 24 25 26 27 28 29 30 31 0
-4 2 0
-4 3 0
-2 -3 4 0
3 5 -6 0
-3 -5 -6 0
3 -5 6 0
-3 5 6 0
7 -4 0
7 -6 0
4 6 -7 0
8 -1 0
8 -7 0
1 7 -8 0
-10 -5 0
-10 -9 0
5 9 10 0
-8 -10 -11 0
8 10 -11 0
-8 10 11 0
8 -10 11 0
12 9 0
12 -2 0
-9 2 -12 0
-13 -12 0
-13 -9 0
12 9 13 0
15 -4 0
15 -14 0
4 14 -15 0
16 13 0
16 15 0
-13 -15 -16 0
18 -17 0
18 -9 0
17 9 -18 0
-19 18 0
-19 -18 0
-20 -3 0
-20 19 0
3 -19 20 0
16 20 -21 0
-16 -20 -21 0
16 -20 21 0
-16 20 21 0
-22 17 0
-22 4 0
-17 -4 22 0
-22 18 -23 0
22 -18 -23 0
-22 -18 23 0
22 18 23 0
-24 21 0
-24 -23 0
-21 23 24 0
25 -11 0
25 -24 0
11 24 -25 0
27 -18 0
27 -17 0
18 17 -27 0
-3 -27 -28 0
3 27 -28 0
-3 27 28 0
3 -27 28 0
28 -6 -29 0
-28 6 -29 0
28 6 29 0
-28 -6 29 0
-26 -29 -30 0
26 29 -30 0
-26 29 30 0
26 -29 30 0
-25 30 -31 0
25 -30 -31 0
-25 -30 31 0
25 30 31 0
-27 -5 9 24 -4 -17 0
9 30 17 -28 0
-16 -12 -20 -29 17 0
-19 -17 -4 15 31 -16 -9 -21 0
9 -6 4 11 -8 15 0
17 24 -4 0
21 -24 -20 -30 12 7 0
-1 25 7 -9 -24 -21 31 0
31 0
